(set-logic QF_NRA)
(set-info :source |Benchmarks generated from hycomp (https://es-static.fbk.eu/tools/hycomp/). BMC instances of non-linear hybrid automata taken from: Alessandro Cimatti, Sergio Mover, Stefano Tonetta, A quantifier-free SMT encoding of non-linear hybrid automata, FMCAD 2012 and Alessandro Cimatti, Sergio Mover, Stefano Tonetta, Quantier-free encoding of invariants for Hybrid Systems, Formal Methods in System Design. This instance solves a BMC problem of depth 0 and uses the encoding obtained with quantifier elimination using redlog encoding. Contacts: Sergio Mover (mover@fbk.eu), Stefano Tonetta (tonettas@fbk.eu), Alessandro Cimatti (cimatti@fbk.eu).|)
(set-info :smt-lib-version 2.0)
(set-info :category "industrial")
(set-info :status unsat)
;; MathSAT API call trace
;; generated on Mon Mar 19 10:45:09 2012
(declare-fun b.y__AT0 () Real)
(declare-fun b.event_is_timed__AT0 () Bool)
(declare-fun b.counter.0__AT0 () Bool)
(declare-fun b.counter.1__AT0 () Bool)
(declare-fun b.counter.3__AT0 () Bool)
(declare-fun b.delta__AT0 () Real)
(declare-fun speed_loss__AT0 () Real)
(declare-fun b.counter.2__AT0 () Bool)
(declare-fun b.time__AT0 () Real)
(declare-fun b.speed_y__AT0 () Real)
(declare-fun b.EVENT.1__AT0 () Bool)
(declare-fun b.EVENT.0__AT0 () Bool)
(assert (let ((.def_62 (* 49.0 b.delta__AT0)))
(let ((.def_63 (* b.delta__AT0 .def_62)))
(let ((.def_65 (* (- 1.0) .def_63)))
(let ((.def_59 (* 10.0 b.speed_y__AT0)))
(let ((.def_60 (* b.delta__AT0 .def_59)))
(let ((.def_66 (+ .def_60 .def_65)))
(let ((.def_67 (* 10.0 b.y__AT0)))
(let ((.def_69 (+ .def_67 .def_66)))
(let ((.def_70 (<= 0.0 .def_69)))
(let ((.def_100 (not .def_70)))
(let ((.def_84 (* (- 49.0) b.delta__AT0)))
(let ((.def_73 (* 5.0 b.speed_y__AT0)))
(let ((.def_85 (+ .def_73 .def_84)))
(let ((.def_86 (<= 0.0 .def_85)))
(let ((.def_101 (and .def_86 .def_100)))
(let ((.def_96 (<= b.speed_y__AT0 0.0 )))
(let ((.def_49 (<= 0.0 b.y__AT0)))
(let ((.def_99 (or .def_49 .def_96)))
(let ((.def_102 (or .def_99 .def_101)))
(let ((.def_95 (<= b.y__AT0 0.0 )))
(let ((.def_97 (and .def_95 .def_96)))
(let ((.def_90 (<= .def_85 0.0 )))
(let ((.def_91 (not .def_90)))
(let ((.def_88 (= .def_69 0.0 )))
(let ((.def_89 (not .def_88)))
(let ((.def_92 (or .def_89 .def_91)))
(let ((.def_87 (or .def_70 .def_86)))
(let ((.def_93 (and .def_87 .def_92)))
(let ((.def_74 (* b.speed_y__AT0 .def_73)))
(let ((.def_76 (* 98.0 b.y__AT0)))
(let ((.def_78 (+ .def_76 .def_74)))
(let ((.def_81 (<= .def_78 0.0 )))
(let ((.def_82 (not .def_81)))
(let ((.def_94 (or .def_82 .def_93)))
(let ((.def_98 (or .def_94 .def_97)))
(let ((.def_103 (and .def_98 .def_102)))
(let ((.def_79 (<= 0.0 .def_78)))
(let ((.def_80 (not .def_79)))
(let ((.def_104 (or .def_80 .def_103)))
(let ((.def_57 (<= 0.0 b.delta__AT0)))
(let ((.def_58 (not .def_57)))
(let ((.def_71 (or .def_58 .def_70)))
(let ((.def_105 (and .def_71 .def_104)))
(let ((.def_38 (not b.EVENT.0__AT0)))
(let ((.def_36 (not b.EVENT.1__AT0)))
(let ((.def_54 (and .def_36 .def_38)))
(let ((.def_55 (not .def_54)))
(let ((.def_106 (or .def_55 .def_105)))
(let ((.def_47 (<= speed_loss__AT0 (/ 1 2))))
(let ((.def_44 (<= (/ 1 10) speed_loss__AT0)))
(let ((.def_48 (and .def_44 .def_47)))
(let ((.def_50 (and .def_48 .def_49)))
(let ((.def_39 (or .def_36 .def_38)))
(let ((.def_6 (not b.counter.0__AT0)))
(let ((.def_4 (not b.counter.1__AT0)))
(let ((.def_29 (or .def_4 .def_6)))
(let ((.def_33 (or b.counter.3__AT0 .def_29)))
(let ((.def_30 (or b.counter.2__AT0 .def_29)))
(let ((.def_9 (not b.counter.2__AT0)))
(let ((.def_28 (or .def_6 .def_9)))
(let ((.def_31 (and .def_28 .def_30)))
(let ((.def_12 (not b.counter.3__AT0)))
(let ((.def_32 (or .def_12 .def_31)))
(let ((.def_34 (and .def_32 .def_33)))
(let ((.def_40 (and .def_34 .def_39)))
(let ((.def_51 (and .def_40 .def_50)))
(let ((.def_25 (= b.speed_y__AT0 0.0 )))
(let ((.def_22 (= b.y__AT0 10.0 )))
(let ((.def_17 (= b.time__AT0 0.0 )))
(let ((.def_19 (and .def_17 b.event_is_timed__AT0)))
(let ((.def_23 (and .def_19 .def_22)))
(let ((.def_26 (and .def_23 .def_25)))
(let ((.def_7 (and .def_4 .def_6)))
(let ((.def_10 (and .def_7 .def_9)))
(let ((.def_13 (and .def_10 .def_12)))
(let ((.def_27 (and .def_13 .def_26)))
(let ((.def_52 (and .def_27 .def_51)))
(let ((.def_14 (not .def_13)))
(let ((.def_53 (and .def_14 .def_52)))
(let ((.def_107 (and .def_53 .def_106)))
.def_107)))))))))))))))))))))))))))))))))))))))))))))))))))))))))))))))))))))))))))))))))
(check-sat)
(exit)
